<?xml version = "1.0" encoding="UTF-8" standalone="yes"?>
<CPLEXSolution version="1.2">
 <header
   problemName="IloCplex"
   solutionName="p0"
   solutionIndex="-1"
   objectiveValue="-9004540095"
   solutionTypeValue="3"
   solutionTypeString="primal"
   solutionStatusValue="127"
   solutionStatusString="integer feasible solution"
   solutionMethodString="mip"
   primalFeasible="0"
   dualFeasible="0"
   writeLevel="3"/>
 <quality
   epInt="1.0000000000000001e-05"
   epRHS="9.9999999999999995e-07"
   maxIntInfeas="0"
   maxPrimalInfeas="0"
   maxX="1"
   maxSlack="1"/>
 <variables>
  <variable name="w0_1" index="1" value="1"/>
  <variable name="w0_2" index="2" value="1"/>
  <variable name="w0_3" index="3" value="1"/>
  <variable name="w0_4" index="4" value="1"/>
  <variable name="w0_6" index="6" value="1"/>
  <variable name="w0_13" index="13" value="1"/>
  <variable name="w0_14" index="14" value="1"/>
  <variable name="w0_15" index="15" value="1"/>
  <variable name="w2_1" index="35" value="1"/>
  <variable name="w2_2" index="36" value="1"/>
  <variable name="w2_3" index="37" value="1"/>
  <variable name="w2_4" index="38" value="1"/>
  <variable name="w2_6" index="40" value="1"/>
  <variable name="w2_13" index="47" value="1"/>
  <variable name="w2_14" index="48" value="1"/>
  <variable name="w2_15" index="49" value="1"/>
  <variable name="w8_1" index="137" value="1"/>
  <variable name="w8_2" index="138" value="1"/>
  <variable name="w8_3" index="139" value="1"/>
  <variable name="w8_4" index="140" value="1"/>
  <variable name="w8_6" index="142" value="1"/>
  <variable name="w8_13" index="149" value="1"/>
  <variable name="w8_14" index="150" value="1"/>
  <variable name="w8_15" index="151" value="1"/>
  <variable name="w16_1" index="273" value="1"/>
  <variable name="w16_2" index="274" value="1"/>
  <variable name="w16_3" index="275" value="1"/>
  <variable name="w16_4" index="276" value="1"/>
  <variable name="w16_6" index="278" value="1"/>
  <variable name="w16_13" index="285" value="1"/>
  <variable name="w16_14" index="286" value="1"/>
  <variable name="w16_15" index="287" value="1"/>
  <variable name="w17_1" index="290" value="1"/>
  <variable name="w17_2" index="291" value="1"/>
  <variable name="w17_3" index="292" value="1"/>
  <variable name="w17_4" index="293" value="1"/>
  <variable name="w17_6" index="295" value="1"/>
  <variable name="w17_13" index="302" value="1"/>
  <variable name="w17_14" index="303" value="1"/>
  <variable name="w17_15" index="304" value="1"/>
  <variable name="w18_1" index="307" value="1"/>
  <variable name="w18_2" index="308" value="1"/>
  <variable name="w18_3" index="309" value="1"/>
  <variable name="w18_4" index="310" value="1"/>
  <variable name="w18_6" index="312" value="1"/>
  <variable name="w18_13" index="319" value="1"/>
  <variable name="w18_14" index="320" value="1"/>
  <variable name="w18_15" index="321" value="1"/>
  <variable name="k0" index="340" value="1"/>
  <variable name="k2" index="342" value="1"/>
  <variable name="k8" index="348" value="1"/>
  <variable name="k16" index="356" value="1"/>
  <variable name="k17" index="357" value="1"/>
  <variable name="k18" index="358" value="1"/>
  <variable name="x0_62" index="422" value="1"/>
  <variable name="x1_33" index="493" value="1"/>
  <variable name="x2_46" index="606" value="1"/>
  <variable name="x3_68" index="728" value="1"/>
  <variable name="x4_27" index="787" value="1"/>
  <variable name="x5_40" index="900" value="1"/>
  <variable name="x6_34" index="994" value="1"/>
  <variable name="x7_99" index="1159" value="1"/>
  <variable name="x8_67" index="1227" value="1"/>
  <variable name="x9_85" index="1345" value="1"/>
  <variable name="x10_95" index="1455" value="1"/>
  <variable name="x11_31" index="1491" value="1"/>
  <variable name="x12_92" index="1652" value="1"/>
  <variable name="x13_70" index="1730" value="1"/>
  <variable name="x14_87" index="1847" value="1"/>
  <variable name="x15_29" index="1889" value="1"/>
  <variable name="x16_2" index="1962" value="1"/>
  <variable name="x17_26" index="2086" value="1"/>
  <variable name="x18_25" index="2185" value="1"/>
  <variable name="x19_94" index="2354" value="1"/>
  <variable name="x20_30" index="2390" value="1"/>
  <variable name="x21_58" index="2518" value="1"/>
  <variable name="x22_61" index="2621" value="1"/>
  <variable name="x23_76" index="2736" value="1"/>
  <variable name="x24_84" index="2844" value="1"/>
  <variable name="x25_54" index="2914" value="1"/>
  <variable name="x26_64" index="3024" value="1"/>
  <variable name="x27_91" index="3151" value="1"/>
  <variable name="x28_81" index="3241" value="1"/>
  <variable name="x29_6" index="3266" value="1"/>
  <variable name="x30_88" index="3448" value="1"/>
  <variable name="x31_83" index="3543" value="1"/>
  <variable name="x32_57" index="3617" value="1"/>
  <variable name="x33_65" index="3725" value="1"/>
  <variable name="x34_9" index="3769" value="1"/>
  <variable name="x35_59" index="3919" value="1"/>
  <variable name="x36_60" index="4020" value="1"/>
  <variable name="x37_51" index="4111" value="1"/>
  <variable name="x38_52" index="4212" value="1"/>
  <variable name="x39_97" index="4357" value="1"/>
  <variable name="x40_90" index="4450" value="1"/>
  <variable name="x41_21" index="4481" value="1"/>
  <variable name="x42_5" index="4565" value="1"/>
  <variable name="x43_93" index="4753" value="1"/>
  <variable name="x44_36" index="4796" value="1"/>
  <variable name="x45_47" index="4907" value="1"/>
  <variable name="x46_8" index="4968" value="1"/>
  <variable name="x47_55" index="5115" value="1"/>
  <variable name="x48_75" index="5235" value="1"/>
  <variable name="x49_80" index="5340" value="1"/>
  <variable name="x50_18" index="5378" value="1"/>
  <variable name="x51_20" index="5480" value="1"/>
  <variable name="x52_32" index="5592" value="1"/>
  <variable name="x53_98" index="5758" value="1"/>
  <variable name="x54_14" index="5774" value="1"/>
  <variable name="x55_45" index="5905" value="1"/>
  <variable name="x56_1" index="5961" value="1"/>
  <variable name="x57_22" index="6082" value="1"/>
  <variable name="x58_23" index="6183" value="1"/>
  <variable name="x59_96" index="6356" value="1"/>
  <variable name="x60_42" index="6402" value="1"/>
  <variable name="x61_16" index="6476" value="1"/>
  <variable name="x62_41" index="6601" value="1"/>
  <variable name="x63_24" index="6684" value="1"/>
  <variable name="x64_44" index="6804" value="1"/>
  <variable name="x65_78" index="6938" value="1"/>
  <variable name="x66_39" index="6999" value="1"/>
  <variable name="x67_79" index="7139" value="1"/>
  <variable name="x68_74" index="7234" value="1"/>
  <variable name="x69_19" index="7279" value="1"/>
  <variable name="x70_77" index="7437" value="1"/>
  <variable name="x71_13" index="7473" value="1"/>
  <variable name="x72_56" index="7616" value="1"/>
  <variable name="x73_17" index="7677" value="1"/>
  <variable name="x74_48" index="7808" value="1"/>
  <variable name="x75_89" index="7949" value="1"/>
  <variable name="x76_49" index="8009" value="1"/>
  <variable name="x77_72" index="8132" value="1"/>
  <variable name="x78_43" index="8203" value="1"/>
  <variable name="x79_50" index="8310" value="1"/>
  <variable name="x80_35" index="8395" value="1"/>
  <variable name="x81_69" index="8529" value="1"/>
  <variable name="x82_15" index="8575" value="1"/>
  <variable name="x83_37" index="8697" value="1"/>
  <variable name="x84_10" index="8770" value="1"/>
  <variable name="x85_82" index="8942" value="1"/>
  <variable name="x86_71" index="9031" value="1"/>
  <variable name="x87_53" index="9113" value="1"/>
  <variable name="x88_7" index="9167" value="1"/>
  <variable name="x89_86" index="9346" value="1"/>
  <variable name="x90_12" index="9372" value="1"/>
  <variable name="x91_63" index="9523" value="1"/>
  <variable name="x92_4" index="9564" value="1"/>
  <variable name="x93_73" index="9733" value="1"/>
  <variable name="x94_0" index="9760" value="1"/>
  <variable name="x95_38" index="9898" value="1"/>
  <variable name="x96_66" index="10026" value="1"/>
  <variable name="x97_11" index="10071" value="1"/>
  <variable name="x98_28" index="10188" value="1"/>
  <variable name="x99_3" index="10263" value="1"/>
  <variable name="u1" index="10361" value="1"/>
  <variable name="u2" index="10362" value="1"/>
  <variable name="u3" index="10363" value="1"/>
  <variable name="u4" index="10364" value="1"/>
  <variable name="u6" index="10366" value="1"/>
  <variable name="u13" index="10373" value="1"/>
  <variable name="u14" index="10374" value="1"/>
  <variable name="u15" index="10375" value="1"/>
 </variables>
</CPLEXSolution>
